c turning on binary mode checking
c parsing input formula with 259840 variables and 1039929 clauses
c finished parsing, read 23592326 bytes from proof file
c detected empty clause; start verification via backward checking
c 4461 of 1039929 clauses in core                            
c 5089 of 614189 lemmas in core using 26962 resolution steps
c 0 RAT lemmas in core; 207 redundant literals in core lemmas
s VERIFIED
c verification time: 2.557 seconds
